#P opt CAM-B3LYP/6-311++g** nosymm

optimization of 1,4-dioxane

0 1
O          1.000000        1.000000        0.000000
C         -0.440000        1.000000        0.000000
C         -0.970000        1.000000        1.430000
O         -0.480000        2.140000        2.150000
C          0.960000        2.140000        2.150000
C          1.490000        2.140000        0.720000
H         -0.770000        0.110000       -0.530000
H         -0.780000        1.880000       -0.550000
H         -0.660000        0.090000        1.960000
H         -2.060000        1.040000        1.430000
H          1.300000        1.250000        2.690000
H          1.300000        3.030000        2.680000
H          2.580000        2.100000        0.720000
H          1.180000        3.050000        0.190000
 
