%oldchk=/home/m.ambrosetti/2019/Fitting_dataset/water/opt/h2o_opt_CCSD.chk
# Polar CCSD/aug-cc-pVTZ nosymm geom=check

polarizability of water 

0 1

